&control
calculation     = 'bands'
prefix          = 'MoS2',
restart_mode    = 'from_scratch',
tstress = .true.
tprnfor = .true.
wf_collect = .false.
pseudo_dir      = './pp/'
wfcdir = './'
outdir          = './'
 /
&system
ibrav = 0
nat = 3
ntyp =2
ecutwfc         = 95,
nbnd = 36
lspinorb = .true.
noncolin = .true.

 /
&electrons
   electron_maxstep = 100
   conv_thr = 1.0d-10
   mixing_mode = 'plain'
   mixing_beta = 0.7
   mixing_ndim = 8
   diagonalization = 'david'
   diago_david_ndim = 4
   diago_full_acc = .true.
 /

ATOMIC_SPECIES
Mo 95.95 Mo_rel_rrkj_sc.UPF
S 32.065 S_rel_tm.UPF

CELL_PARAMETERS angstrom
   3.144817974  -0.000000000   0.000000000
  -1.572408987   2.723492255   0.000000000
   0.000000000   0.000000000  20.000000000
ATOMIC_POSITIONS angstrom
Mo       0.000000000   0.000000000  10.000000000
S       -0.000000000   1.815661504  11.571305147
S       -0.000000000   1.815661504   8.428694853

K_POINTS crystal
576
  0.00000000  0.00000000  0.00000000  1.736111e-03
  0.00000000  0.04166667  0.00000000  1.736111e-03
  0.00000000  0.08333333  0.00000000  1.736111e-03
  0.00000000  0.12500000  0.00000000  1.736111e-03
  0.00000000  0.16666667  0.00000000  1.736111e-03
  0.00000000  0.20833333  0.00000000  1.736111e-03
  0.00000000  0.25000000  0.00000000  1.736111e-03
  0.00000000  0.29166667  0.00000000  1.736111e-03
  0.00000000  0.33333333  0.00000000  1.736111e-03
  0.00000000  0.37500000  0.00000000  1.736111e-03
  0.00000000  0.41666667  0.00000000  1.736111e-03
  0.00000000  0.45833333  0.00000000  1.736111e-03
  0.00000000  0.50000000  0.00000000  1.736111e-03
  0.00000000  0.54166667  0.00000000  1.736111e-03
  0.00000000  0.58333333  0.00000000  1.736111e-03
  0.00000000  0.62500000  0.00000000  1.736111e-03
  0.00000000  0.66666667  0.00000000  1.736111e-03
  0.00000000  0.70833333  0.00000000  1.736111e-03
  0.00000000  0.75000000  0.00000000  1.736111e-03
  0.00000000  0.79166667  0.00000000  1.736111e-03
  0.00000000  0.83333333  0.00000000  1.736111e-03
  0.00000000  0.87500000  0.00000000  1.736111e-03
  0.00000000  0.91666667  0.00000000  1.736111e-03
  0.00000000  0.95833333  0.00000000  1.736111e-03
  0.04166667  0.00000000  0.00000000  1.736111e-03
  0.04166667  0.04166667  0.00000000  1.736111e-03
  0.04166667  0.08333333  0.00000000  1.736111e-03
  0.04166667  0.12500000  0.00000000  1.736111e-03
  0.04166667  0.16666667  0.00000000  1.736111e-03
  0.04166667  0.20833333  0.00000000  1.736111e-03
  0.04166667  0.25000000  0.00000000  1.736111e-03
  0.04166667  0.29166667  0.00000000  1.736111e-03
  0.04166667  0.33333333  0.00000000  1.736111e-03
  0.04166667  0.37500000  0.00000000  1.736111e-03
  0.04166667  0.41666667  0.00000000  1.736111e-03
  0.04166667  0.45833333  0.00000000  1.736111e-03
  0.04166667  0.50000000  0.00000000  1.736111e-03
  0.04166667  0.54166667  0.00000000  1.736111e-03
  0.04166667  0.58333333  0.00000000  1.736111e-03
  0.04166667  0.62500000  0.00000000  1.736111e-03
  0.04166667  0.66666667  0.00000000  1.736111e-03
  0.04166667  0.70833333  0.00000000  1.736111e-03
  0.04166667  0.75000000  0.00000000  1.736111e-03
  0.04166667  0.79166667  0.00000000  1.736111e-03
  0.04166667  0.83333333  0.00000000  1.736111e-03
  0.04166667  0.87500000  0.00000000  1.736111e-03
  0.04166667  0.91666667  0.00000000  1.736111e-03
  0.04166667  0.95833333  0.00000000  1.736111e-03
  0.08333333  0.00000000  0.00000000  1.736111e-03
  0.08333333  0.04166667  0.00000000  1.736111e-03
  0.08333333  0.08333333  0.00000000  1.736111e-03
  0.08333333  0.12500000  0.00000000  1.736111e-03
  0.08333333  0.16666667  0.00000000  1.736111e-03
  0.08333333  0.20833333  0.00000000  1.736111e-03
  0.08333333  0.25000000  0.00000000  1.736111e-03
  0.08333333  0.29166667  0.00000000  1.736111e-03
  0.08333333  0.33333333  0.00000000  1.736111e-03
  0.08333333  0.37500000  0.00000000  1.736111e-03
  0.08333333  0.41666667  0.00000000  1.736111e-03
  0.08333333  0.45833333  0.00000000  1.736111e-03
  0.08333333  0.50000000  0.00000000  1.736111e-03
  0.08333333  0.54166667  0.00000000  1.736111e-03
  0.08333333  0.58333333  0.00000000  1.736111e-03
  0.08333333  0.62500000  0.00000000  1.736111e-03
  0.08333333  0.66666667  0.00000000  1.736111e-03
  0.08333333  0.70833333  0.00000000  1.736111e-03
  0.08333333  0.75000000  0.00000000  1.736111e-03
  0.08333333  0.79166667  0.00000000  1.736111e-03
  0.08333333  0.83333333  0.00000000  1.736111e-03
  0.08333333  0.87500000  0.00000000  1.736111e-03
  0.08333333  0.91666667  0.00000000  1.736111e-03
  0.08333333  0.95833333  0.00000000  1.736111e-03
  0.12500000  0.00000000  0.00000000  1.736111e-03
  0.12500000  0.04166667  0.00000000  1.736111e-03
  0.12500000  0.08333333  0.00000000  1.736111e-03
  0.12500000  0.12500000  0.00000000  1.736111e-03
  0.12500000  0.16666667  0.00000000  1.736111e-03
  0.12500000  0.20833333  0.00000000  1.736111e-03
  0.12500000  0.25000000  0.00000000  1.736111e-03
  0.12500000  0.29166667  0.00000000  1.736111e-03
  0.12500000  0.33333333  0.00000000  1.736111e-03
  0.12500000  0.37500000  0.00000000  1.736111e-03
  0.12500000  0.41666667  0.00000000  1.736111e-03
  0.12500000  0.45833333  0.00000000  1.736111e-03
  0.12500000  0.50000000  0.00000000  1.736111e-03
  0.12500000  0.54166667  0.00000000  1.736111e-03
  0.12500000  0.58333333  0.00000000  1.736111e-03
  0.12500000  0.62500000  0.00000000  1.736111e-03
  0.12500000  0.66666667  0.00000000  1.736111e-03
  0.12500000  0.70833333  0.00000000  1.736111e-03
  0.12500000  0.75000000  0.00000000  1.736111e-03
  0.12500000  0.79166667  0.00000000  1.736111e-03
  0.12500000  0.83333333  0.00000000  1.736111e-03
  0.12500000  0.87500000  0.00000000  1.736111e-03
  0.12500000  0.91666667  0.00000000  1.736111e-03
  0.12500000  0.95833333  0.00000000  1.736111e-03
  0.16666667  0.00000000  0.00000000  1.736111e-03
  0.16666667  0.04166667  0.00000000  1.736111e-03
  0.16666667  0.08333333  0.00000000  1.736111e-03
  0.16666667  0.12500000  0.00000000  1.736111e-03
  0.16666667  0.16666667  0.00000000  1.736111e-03
  0.16666667  0.20833333  0.00000000  1.736111e-03
  0.16666667  0.25000000  0.00000000  1.736111e-03
  0.16666667  0.29166667  0.00000000  1.736111e-03
  0.16666667  0.33333333  0.00000000  1.736111e-03
  0.16666667  0.37500000  0.00000000  1.736111e-03
  0.16666667  0.41666667  0.00000000  1.736111e-03
  0.16666667  0.45833333  0.00000000  1.736111e-03
  0.16666667  0.50000000  0.00000000  1.736111e-03
  0.16666667  0.54166667  0.00000000  1.736111e-03
  0.16666667  0.58333333  0.00000000  1.736111e-03
  0.16666667  0.62500000  0.00000000  1.736111e-03
  0.16666667  0.66666667  0.00000000  1.736111e-03
  0.16666667  0.70833333  0.00000000  1.736111e-03
  0.16666667  0.75000000  0.00000000  1.736111e-03
  0.16666667  0.79166667  0.00000000  1.736111e-03
  0.16666667  0.83333333  0.00000000  1.736111e-03
  0.16666667  0.87500000  0.00000000  1.736111e-03
  0.16666667  0.91666667  0.00000000  1.736111e-03
  0.16666667  0.95833333  0.00000000  1.736111e-03
  0.20833333  0.00000000  0.00000000  1.736111e-03
  0.20833333  0.04166667  0.00000000  1.736111e-03
  0.20833333  0.08333333  0.00000000  1.736111e-03
  0.20833333  0.12500000  0.00000000  1.736111e-03
  0.20833333  0.16666667  0.00000000  1.736111e-03
  0.20833333  0.20833333  0.00000000  1.736111e-03
  0.20833333  0.25000000  0.00000000  1.736111e-03
  0.20833333  0.29166667  0.00000000  1.736111e-03
  0.20833333  0.33333333  0.00000000  1.736111e-03
  0.20833333  0.37500000  0.00000000  1.736111e-03
  0.20833333  0.41666667  0.00000000  1.736111e-03
  0.20833333  0.45833333  0.00000000  1.736111e-03
  0.20833333  0.50000000  0.00000000  1.736111e-03
  0.20833333  0.54166667  0.00000000  1.736111e-03
  0.20833333  0.58333333  0.00000000  1.736111e-03
  0.20833333  0.62500000  0.00000000  1.736111e-03
  0.20833333  0.66666667  0.00000000  1.736111e-03
  0.20833333  0.70833333  0.00000000  1.736111e-03
  0.20833333  0.75000000  0.00000000  1.736111e-03
  0.20833333  0.79166667  0.00000000  1.736111e-03
  0.20833333  0.83333333  0.00000000  1.736111e-03
  0.20833333  0.87500000  0.00000000  1.736111e-03
  0.20833333  0.91666667  0.00000000  1.736111e-03
  0.20833333  0.95833333  0.00000000  1.736111e-03
  0.25000000  0.00000000  0.00000000  1.736111e-03
  0.25000000  0.04166667  0.00000000  1.736111e-03
  0.25000000  0.08333333  0.00000000  1.736111e-03
  0.25000000  0.12500000  0.00000000  1.736111e-03
  0.25000000  0.16666667  0.00000000  1.736111e-03
  0.25000000  0.20833333  0.00000000  1.736111e-03
  0.25000000  0.25000000  0.00000000  1.736111e-03
  0.25000000  0.29166667  0.00000000  1.736111e-03
  0.25000000  0.33333333  0.00000000  1.736111e-03
  0.25000000  0.37500000  0.00000000  1.736111e-03
  0.25000000  0.41666667  0.00000000  1.736111e-03
  0.25000000  0.45833333  0.00000000  1.736111e-03
  0.25000000  0.50000000  0.00000000  1.736111e-03
  0.25000000  0.54166667  0.00000000  1.736111e-03
  0.25000000  0.58333333  0.00000000  1.736111e-03
  0.25000000  0.62500000  0.00000000  1.736111e-03
  0.25000000  0.66666667  0.00000000  1.736111e-03
  0.25000000  0.70833333  0.00000000  1.736111e-03
  0.25000000  0.75000000  0.00000000  1.736111e-03
  0.25000000  0.79166667  0.00000000  1.736111e-03
  0.25000000  0.83333333  0.00000000  1.736111e-03
  0.25000000  0.87500000  0.00000000  1.736111e-03
  0.25000000  0.91666667  0.00000000  1.736111e-03
  0.25000000  0.95833333  0.00000000  1.736111e-03
  0.29166667  0.00000000  0.00000000  1.736111e-03
  0.29166667  0.04166667  0.00000000  1.736111e-03
  0.29166667  0.08333333  0.00000000  1.736111e-03
  0.29166667  0.12500000  0.00000000  1.736111e-03
  0.29166667  0.16666667  0.00000000  1.736111e-03
  0.29166667  0.20833333  0.00000000  1.736111e-03
  0.29166667  0.25000000  0.00000000  1.736111e-03
  0.29166667  0.29166667  0.00000000  1.736111e-03
  0.29166667  0.33333333  0.00000000  1.736111e-03
  0.29166667  0.37500000  0.00000000  1.736111e-03
  0.29166667  0.41666667  0.00000000  1.736111e-03
  0.29166667  0.45833333  0.00000000  1.736111e-03
  0.29166667  0.50000000  0.00000000  1.736111e-03
  0.29166667  0.54166667  0.00000000  1.736111e-03
  0.29166667  0.58333333  0.00000000  1.736111e-03
  0.29166667  0.62500000  0.00000000  1.736111e-03
  0.29166667  0.66666667  0.00000000  1.736111e-03
  0.29166667  0.70833333  0.00000000  1.736111e-03
  0.29166667  0.75000000  0.00000000  1.736111e-03
  0.29166667  0.79166667  0.00000000  1.736111e-03
  0.29166667  0.83333333  0.00000000  1.736111e-03
  0.29166667  0.87500000  0.00000000  1.736111e-03
  0.29166667  0.91666667  0.00000000  1.736111e-03
  0.29166667  0.95833333  0.00000000  1.736111e-03
  0.33333333  0.00000000  0.00000000  1.736111e-03
  0.33333333  0.04166667  0.00000000  1.736111e-03
  0.33333333  0.08333333  0.00000000  1.736111e-03
  0.33333333  0.12500000  0.00000000  1.736111e-03
  0.33333333  0.16666667  0.00000000  1.736111e-03
  0.33333333  0.20833333  0.00000000  1.736111e-03
  0.33333333  0.25000000  0.00000000  1.736111e-03
  0.33333333  0.29166667  0.00000000  1.736111e-03
  0.33333333  0.33333333  0.00000000  1.736111e-03
  0.33333333  0.37500000  0.00000000  1.736111e-03
  0.33333333  0.41666667  0.00000000  1.736111e-03
  0.33333333  0.45833333  0.00000000  1.736111e-03
  0.33333333  0.50000000  0.00000000  1.736111e-03
  0.33333333  0.54166667  0.00000000  1.736111e-03
  0.33333333  0.58333333  0.00000000  1.736111e-03
  0.33333333  0.62500000  0.00000000  1.736111e-03
  0.33333333  0.66666667  0.00000000  1.736111e-03
  0.33333333  0.70833333  0.00000000  1.736111e-03
  0.33333333  0.75000000  0.00000000  1.736111e-03
  0.33333333  0.79166667  0.00000000  1.736111e-03
  0.33333333  0.83333333  0.00000000  1.736111e-03
  0.33333333  0.87500000  0.00000000  1.736111e-03
  0.33333333  0.91666667  0.00000000  1.736111e-03
  0.33333333  0.95833333  0.00000000  1.736111e-03
  0.37500000  0.00000000  0.00000000  1.736111e-03
  0.37500000  0.04166667  0.00000000  1.736111e-03
  0.37500000  0.08333333  0.00000000  1.736111e-03
  0.37500000  0.12500000  0.00000000  1.736111e-03
  0.37500000  0.16666667  0.00000000  1.736111e-03
  0.37500000  0.20833333  0.00000000  1.736111e-03
  0.37500000  0.25000000  0.00000000  1.736111e-03
  0.37500000  0.29166667  0.00000000  1.736111e-03
  0.37500000  0.33333333  0.00000000  1.736111e-03
  0.37500000  0.37500000  0.00000000  1.736111e-03
  0.37500000  0.41666667  0.00000000  1.736111e-03
  0.37500000  0.45833333  0.00000000  1.736111e-03
  0.37500000  0.50000000  0.00000000  1.736111e-03
  0.37500000  0.54166667  0.00000000  1.736111e-03
  0.37500000  0.58333333  0.00000000  1.736111e-03
  0.37500000  0.62500000  0.00000000  1.736111e-03
  0.37500000  0.66666667  0.00000000  1.736111e-03
  0.37500000  0.70833333  0.00000000  1.736111e-03
  0.37500000  0.75000000  0.00000000  1.736111e-03
  0.37500000  0.79166667  0.00000000  1.736111e-03
  0.37500000  0.83333333  0.00000000  1.736111e-03
  0.37500000  0.87500000  0.00000000  1.736111e-03
  0.37500000  0.91666667  0.00000000  1.736111e-03
  0.37500000  0.95833333  0.00000000  1.736111e-03
  0.41666667  0.00000000  0.00000000  1.736111e-03
  0.41666667  0.04166667  0.00000000  1.736111e-03
  0.41666667  0.08333333  0.00000000  1.736111e-03
  0.41666667  0.12500000  0.00000000  1.736111e-03
  0.41666667  0.16666667  0.00000000  1.736111e-03
  0.41666667  0.20833333  0.00000000  1.736111e-03
  0.41666667  0.25000000  0.00000000  1.736111e-03
  0.41666667  0.29166667  0.00000000  1.736111e-03
  0.41666667  0.33333333  0.00000000  1.736111e-03
  0.41666667  0.37500000  0.00000000  1.736111e-03
  0.41666667  0.41666667  0.00000000  1.736111e-03
  0.41666667  0.45833333  0.00000000  1.736111e-03
  0.41666667  0.50000000  0.00000000  1.736111e-03
  0.41666667  0.54166667  0.00000000  1.736111e-03
  0.41666667  0.58333333  0.00000000  1.736111e-03
  0.41666667  0.62500000  0.00000000  1.736111e-03
  0.41666667  0.66666667  0.00000000  1.736111e-03
  0.41666667  0.70833333  0.00000000  1.736111e-03
  0.41666667  0.75000000  0.00000000  1.736111e-03
  0.41666667  0.79166667  0.00000000  1.736111e-03
  0.41666667  0.83333333  0.00000000  1.736111e-03
  0.41666667  0.87500000  0.00000000  1.736111e-03
  0.41666667  0.91666667  0.00000000  1.736111e-03
  0.41666667  0.95833333  0.00000000  1.736111e-03
  0.45833333  0.00000000  0.00000000  1.736111e-03
  0.45833333  0.04166667  0.00000000  1.736111e-03
  0.45833333  0.08333333  0.00000000  1.736111e-03
  0.45833333  0.12500000  0.00000000  1.736111e-03
  0.45833333  0.16666667  0.00000000  1.736111e-03
  0.45833333  0.20833333  0.00000000  1.736111e-03
  0.45833333  0.25000000  0.00000000  1.736111e-03
  0.45833333  0.29166667  0.00000000  1.736111e-03
  0.45833333  0.33333333  0.00000000  1.736111e-03
  0.45833333  0.37500000  0.00000000  1.736111e-03
  0.45833333  0.41666667  0.00000000  1.736111e-03
  0.45833333  0.45833333  0.00000000  1.736111e-03
  0.45833333  0.50000000  0.00000000  1.736111e-03
  0.45833333  0.54166667  0.00000000  1.736111e-03
  0.45833333  0.58333333  0.00000000  1.736111e-03
  0.45833333  0.62500000  0.00000000  1.736111e-03
  0.45833333  0.66666667  0.00000000  1.736111e-03
  0.45833333  0.70833333  0.00000000  1.736111e-03
  0.45833333  0.75000000  0.00000000  1.736111e-03
  0.45833333  0.79166667  0.00000000  1.736111e-03
  0.45833333  0.83333333  0.00000000  1.736111e-03
  0.45833333  0.87500000  0.00000000  1.736111e-03
  0.45833333  0.91666667  0.00000000  1.736111e-03
  0.45833333  0.95833333  0.00000000  1.736111e-03
  0.50000000  0.00000000  0.00000000  1.736111e-03
  0.50000000  0.04166667  0.00000000  1.736111e-03
  0.50000000  0.08333333  0.00000000  1.736111e-03
  0.50000000  0.12500000  0.00000000  1.736111e-03
  0.50000000  0.16666667  0.00000000  1.736111e-03
  0.50000000  0.20833333  0.00000000  1.736111e-03
  0.50000000  0.25000000  0.00000000  1.736111e-03
  0.50000000  0.29166667  0.00000000  1.736111e-03
  0.50000000  0.33333333  0.00000000  1.736111e-03
  0.50000000  0.37500000  0.00000000  1.736111e-03
  0.50000000  0.41666667  0.00000000  1.736111e-03
  0.50000000  0.45833333  0.00000000  1.736111e-03
  0.50000000  0.50000000  0.00000000  1.736111e-03
  0.50000000  0.54166667  0.00000000  1.736111e-03
  0.50000000  0.58333333  0.00000000  1.736111e-03
  0.50000000  0.62500000  0.00000000  1.736111e-03
  0.50000000  0.66666667  0.00000000  1.736111e-03
  0.50000000  0.70833333  0.00000000  1.736111e-03
  0.50000000  0.75000000  0.00000000  1.736111e-03
  0.50000000  0.79166667  0.00000000  1.736111e-03
  0.50000000  0.83333333  0.00000000  1.736111e-03
  0.50000000  0.87500000  0.00000000  1.736111e-03
  0.50000000  0.91666667  0.00000000  1.736111e-03
  0.50000000  0.95833333  0.00000000  1.736111e-03
  0.54166667  0.00000000  0.00000000  1.736111e-03
  0.54166667  0.04166667  0.00000000  1.736111e-03
  0.54166667  0.08333333  0.00000000  1.736111e-03
  0.54166667  0.12500000  0.00000000  1.736111e-03
  0.54166667  0.16666667  0.00000000  1.736111e-03
  0.54166667  0.20833333  0.00000000  1.736111e-03
  0.54166667  0.25000000  0.00000000  1.736111e-03
  0.54166667  0.29166667  0.00000000  1.736111e-03
  0.54166667  0.33333333  0.00000000  1.736111e-03
  0.54166667  0.37500000  0.00000000  1.736111e-03
  0.54166667  0.41666667  0.00000000  1.736111e-03
  0.54166667  0.45833333  0.00000000  1.736111e-03
  0.54166667  0.50000000  0.00000000  1.736111e-03
  0.54166667  0.54166667  0.00000000  1.736111e-03
  0.54166667  0.58333333  0.00000000  1.736111e-03
  0.54166667  0.62500000  0.00000000  1.736111e-03
  0.54166667  0.66666667  0.00000000  1.736111e-03
  0.54166667  0.70833333  0.00000000  1.736111e-03
  0.54166667  0.75000000  0.00000000  1.736111e-03
  0.54166667  0.79166667  0.00000000  1.736111e-03
  0.54166667  0.83333333  0.00000000  1.736111e-03
  0.54166667  0.87500000  0.00000000  1.736111e-03
  0.54166667  0.91666667  0.00000000  1.736111e-03
  0.54166667  0.95833333  0.00000000  1.736111e-03
  0.58333333  0.00000000  0.00000000  1.736111e-03
  0.58333333  0.04166667  0.00000000  1.736111e-03
  0.58333333  0.08333333  0.00000000  1.736111e-03
  0.58333333  0.12500000  0.00000000  1.736111e-03
  0.58333333  0.16666667  0.00000000  1.736111e-03
  0.58333333  0.20833333  0.00000000  1.736111e-03
  0.58333333  0.25000000  0.00000000  1.736111e-03
  0.58333333  0.29166667  0.00000000  1.736111e-03
  0.58333333  0.33333333  0.00000000  1.736111e-03
  0.58333333  0.37500000  0.00000000  1.736111e-03
  0.58333333  0.41666667  0.00000000  1.736111e-03
  0.58333333  0.45833333  0.00000000  1.736111e-03
  0.58333333  0.50000000  0.00000000  1.736111e-03
  0.58333333  0.54166667  0.00000000  1.736111e-03
  0.58333333  0.58333333  0.00000000  1.736111e-03
  0.58333333  0.62500000  0.00000000  1.736111e-03
  0.58333333  0.66666667  0.00000000  1.736111e-03
  0.58333333  0.70833333  0.00000000  1.736111e-03
  0.58333333  0.75000000  0.00000000  1.736111e-03
  0.58333333  0.79166667  0.00000000  1.736111e-03
  0.58333333  0.83333333  0.00000000  1.736111e-03
  0.58333333  0.87500000  0.00000000  1.736111e-03
  0.58333333  0.91666667  0.00000000  1.736111e-03
  0.58333333  0.95833333  0.00000000  1.736111e-03
  0.62500000  0.00000000  0.00000000  1.736111e-03
  0.62500000  0.04166667  0.00000000  1.736111e-03
  0.62500000  0.08333333  0.00000000  1.736111e-03
  0.62500000  0.12500000  0.00000000  1.736111e-03
  0.62500000  0.16666667  0.00000000  1.736111e-03
  0.62500000  0.20833333  0.00000000  1.736111e-03
  0.62500000  0.25000000  0.00000000  1.736111e-03
  0.62500000  0.29166667  0.00000000  1.736111e-03
  0.62500000  0.33333333  0.00000000  1.736111e-03
  0.62500000  0.37500000  0.00000000  1.736111e-03
  0.62500000  0.41666667  0.00000000  1.736111e-03
  0.62500000  0.45833333  0.00000000  1.736111e-03
  0.62500000  0.50000000  0.00000000  1.736111e-03
  0.62500000  0.54166667  0.00000000  1.736111e-03
  0.62500000  0.58333333  0.00000000  1.736111e-03
  0.62500000  0.62500000  0.00000000  1.736111e-03
  0.62500000  0.66666667  0.00000000  1.736111e-03
  0.62500000  0.70833333  0.00000000  1.736111e-03
  0.62500000  0.75000000  0.00000000  1.736111e-03
  0.62500000  0.79166667  0.00000000  1.736111e-03
  0.62500000  0.83333333  0.00000000  1.736111e-03
  0.62500000  0.87500000  0.00000000  1.736111e-03
  0.62500000  0.91666667  0.00000000  1.736111e-03
  0.62500000  0.95833333  0.00000000  1.736111e-03
  0.66666667  0.00000000  0.00000000  1.736111e-03
  0.66666667  0.04166667  0.00000000  1.736111e-03
  0.66666667  0.08333333  0.00000000  1.736111e-03
  0.66666667  0.12500000  0.00000000  1.736111e-03
  0.66666667  0.16666667  0.00000000  1.736111e-03
  0.66666667  0.20833333  0.00000000  1.736111e-03
  0.66666667  0.25000000  0.00000000  1.736111e-03
  0.66666667  0.29166667  0.00000000  1.736111e-03
  0.66666667  0.33333333  0.00000000  1.736111e-03
  0.66666667  0.37500000  0.00000000  1.736111e-03
  0.66666667  0.41666667  0.00000000  1.736111e-03
  0.66666667  0.45833333  0.00000000  1.736111e-03
  0.66666667  0.50000000  0.00000000  1.736111e-03
  0.66666667  0.54166667  0.00000000  1.736111e-03
  0.66666667  0.58333333  0.00000000  1.736111e-03
  0.66666667  0.62500000  0.00000000  1.736111e-03
  0.66666667  0.66666667  0.00000000  1.736111e-03
  0.66666667  0.70833333  0.00000000  1.736111e-03
  0.66666667  0.75000000  0.00000000  1.736111e-03
  0.66666667  0.79166667  0.00000000  1.736111e-03
  0.66666667  0.83333333  0.00000000  1.736111e-03
  0.66666667  0.87500000  0.00000000  1.736111e-03
  0.66666667  0.91666667  0.00000000  1.736111e-03
  0.66666667  0.95833333  0.00000000  1.736111e-03
  0.70833333  0.00000000  0.00000000  1.736111e-03
  0.70833333  0.04166667  0.00000000  1.736111e-03
  0.70833333  0.08333333  0.00000000  1.736111e-03
  0.70833333  0.12500000  0.00000000  1.736111e-03
  0.70833333  0.16666667  0.00000000  1.736111e-03
  0.70833333  0.20833333  0.00000000  1.736111e-03
  0.70833333  0.25000000  0.00000000  1.736111e-03
  0.70833333  0.29166667  0.00000000  1.736111e-03
  0.70833333  0.33333333  0.00000000  1.736111e-03
  0.70833333  0.37500000  0.00000000  1.736111e-03
  0.70833333  0.41666667  0.00000000  1.736111e-03
  0.70833333  0.45833333  0.00000000  1.736111e-03
  0.70833333  0.50000000  0.00000000  1.736111e-03
  0.70833333  0.54166667  0.00000000  1.736111e-03
  0.70833333  0.58333333  0.00000000  1.736111e-03
  0.70833333  0.62500000  0.00000000  1.736111e-03
  0.70833333  0.66666667  0.00000000  1.736111e-03
  0.70833333  0.70833333  0.00000000  1.736111e-03
  0.70833333  0.75000000  0.00000000  1.736111e-03
  0.70833333  0.79166667  0.00000000  1.736111e-03
  0.70833333  0.83333333  0.00000000  1.736111e-03
  0.70833333  0.87500000  0.00000000  1.736111e-03
  0.70833333  0.91666667  0.00000000  1.736111e-03
  0.70833333  0.95833333  0.00000000  1.736111e-03
  0.75000000  0.00000000  0.00000000  1.736111e-03
  0.75000000  0.04166667  0.00000000  1.736111e-03
  0.75000000  0.08333333  0.00000000  1.736111e-03
  0.75000000  0.12500000  0.00000000  1.736111e-03
  0.75000000  0.16666667  0.00000000  1.736111e-03
  0.75000000  0.20833333  0.00000000  1.736111e-03
  0.75000000  0.25000000  0.00000000  1.736111e-03
  0.75000000  0.29166667  0.00000000  1.736111e-03
  0.75000000  0.33333333  0.00000000  1.736111e-03
  0.75000000  0.37500000  0.00000000  1.736111e-03
  0.75000000  0.41666667  0.00000000  1.736111e-03
  0.75000000  0.45833333  0.00000000  1.736111e-03
  0.75000000  0.50000000  0.00000000  1.736111e-03
  0.75000000  0.54166667  0.00000000  1.736111e-03
  0.75000000  0.58333333  0.00000000  1.736111e-03
  0.75000000  0.62500000  0.00000000  1.736111e-03
  0.75000000  0.66666667  0.00000000  1.736111e-03
  0.75000000  0.70833333  0.00000000  1.736111e-03
  0.75000000  0.75000000  0.00000000  1.736111e-03
  0.75000000  0.79166667  0.00000000  1.736111e-03
  0.75000000  0.83333333  0.00000000  1.736111e-03
  0.75000000  0.87500000  0.00000000  1.736111e-03
  0.75000000  0.91666667  0.00000000  1.736111e-03
  0.75000000  0.95833333  0.00000000  1.736111e-03
  0.79166667  0.00000000  0.00000000  1.736111e-03
  0.79166667  0.04166667  0.00000000  1.736111e-03
  0.79166667  0.08333333  0.00000000  1.736111e-03
  0.79166667  0.12500000  0.00000000  1.736111e-03
  0.79166667  0.16666667  0.00000000  1.736111e-03
  0.79166667  0.20833333  0.00000000  1.736111e-03
  0.79166667  0.25000000  0.00000000  1.736111e-03
  0.79166667  0.29166667  0.00000000  1.736111e-03
  0.79166667  0.33333333  0.00000000  1.736111e-03
  0.79166667  0.37500000  0.00000000  1.736111e-03
  0.79166667  0.41666667  0.00000000  1.736111e-03
  0.79166667  0.45833333  0.00000000  1.736111e-03
  0.79166667  0.50000000  0.00000000  1.736111e-03
  0.79166667  0.54166667  0.00000000  1.736111e-03
  0.79166667  0.58333333  0.00000000  1.736111e-03
  0.79166667  0.62500000  0.00000000  1.736111e-03
  0.79166667  0.66666667  0.00000000  1.736111e-03
  0.79166667  0.70833333  0.00000000  1.736111e-03
  0.79166667  0.75000000  0.00000000  1.736111e-03
  0.79166667  0.79166667  0.00000000  1.736111e-03
  0.79166667  0.83333333  0.00000000  1.736111e-03
  0.79166667  0.87500000  0.00000000  1.736111e-03
  0.79166667  0.91666667  0.00000000  1.736111e-03
  0.79166667  0.95833333  0.00000000  1.736111e-03
  0.83333333  0.00000000  0.00000000  1.736111e-03
  0.83333333  0.04166667  0.00000000  1.736111e-03
  0.83333333  0.08333333  0.00000000  1.736111e-03
  0.83333333  0.12500000  0.00000000  1.736111e-03
  0.83333333  0.16666667  0.00000000  1.736111e-03
  0.83333333  0.20833333  0.00000000  1.736111e-03
  0.83333333  0.25000000  0.00000000  1.736111e-03
  0.83333333  0.29166667  0.00000000  1.736111e-03
  0.83333333  0.33333333  0.00000000  1.736111e-03
  0.83333333  0.37500000  0.00000000  1.736111e-03
  0.83333333  0.41666667  0.00000000  1.736111e-03
  0.83333333  0.45833333  0.00000000  1.736111e-03
  0.83333333  0.50000000  0.00000000  1.736111e-03
  0.83333333  0.54166667  0.00000000  1.736111e-03
  0.83333333  0.58333333  0.00000000  1.736111e-03
  0.83333333  0.62500000  0.00000000  1.736111e-03
  0.83333333  0.66666667  0.00000000  1.736111e-03
  0.83333333  0.70833333  0.00000000  1.736111e-03
  0.83333333  0.75000000  0.00000000  1.736111e-03
  0.83333333  0.79166667  0.00000000  1.736111e-03
  0.83333333  0.83333333  0.00000000  1.736111e-03
  0.83333333  0.87500000  0.00000000  1.736111e-03
  0.83333333  0.91666667  0.00000000  1.736111e-03
  0.83333333  0.95833333  0.00000000  1.736111e-03
  0.87500000  0.00000000  0.00000000  1.736111e-03
  0.87500000  0.04166667  0.00000000  1.736111e-03
  0.87500000  0.08333333  0.00000000  1.736111e-03
  0.87500000  0.12500000  0.00000000  1.736111e-03
  0.87500000  0.16666667  0.00000000  1.736111e-03
  0.87500000  0.20833333  0.00000000  1.736111e-03
  0.87500000  0.25000000  0.00000000  1.736111e-03
  0.87500000  0.29166667  0.00000000  1.736111e-03
  0.87500000  0.33333333  0.00000000  1.736111e-03
  0.87500000  0.37500000  0.00000000  1.736111e-03
  0.87500000  0.41666667  0.00000000  1.736111e-03
  0.87500000  0.45833333  0.00000000  1.736111e-03
  0.87500000  0.50000000  0.00000000  1.736111e-03
  0.87500000  0.54166667  0.00000000  1.736111e-03
  0.87500000  0.58333333  0.00000000  1.736111e-03
  0.87500000  0.62500000  0.00000000  1.736111e-03
  0.87500000  0.66666667  0.00000000  1.736111e-03
  0.87500000  0.70833333  0.00000000  1.736111e-03
  0.87500000  0.75000000  0.00000000  1.736111e-03
  0.87500000  0.79166667  0.00000000  1.736111e-03
  0.87500000  0.83333333  0.00000000  1.736111e-03
  0.87500000  0.87500000  0.00000000  1.736111e-03
  0.87500000  0.91666667  0.00000000  1.736111e-03
  0.87500000  0.95833333  0.00000000  1.736111e-03
  0.91666667  0.00000000  0.00000000  1.736111e-03
  0.91666667  0.04166667  0.00000000  1.736111e-03
  0.91666667  0.08333333  0.00000000  1.736111e-03
  0.91666667  0.12500000  0.00000000  1.736111e-03
  0.91666667  0.16666667  0.00000000  1.736111e-03
  0.91666667  0.20833333  0.00000000  1.736111e-03
  0.91666667  0.25000000  0.00000000  1.736111e-03
  0.91666667  0.29166667  0.00000000  1.736111e-03
  0.91666667  0.33333333  0.00000000  1.736111e-03
  0.91666667  0.37500000  0.00000000  1.736111e-03
  0.91666667  0.41666667  0.00000000  1.736111e-03
  0.91666667  0.45833333  0.00000000  1.736111e-03
  0.91666667  0.50000000  0.00000000  1.736111e-03
  0.91666667  0.54166667  0.00000000  1.736111e-03
  0.91666667  0.58333333  0.00000000  1.736111e-03
  0.91666667  0.62500000  0.00000000  1.736111e-03
  0.91666667  0.66666667  0.00000000  1.736111e-03
  0.91666667  0.70833333  0.00000000  1.736111e-03
  0.91666667  0.75000000  0.00000000  1.736111e-03
  0.91666667  0.79166667  0.00000000  1.736111e-03
  0.91666667  0.83333333  0.00000000  1.736111e-03
  0.91666667  0.87500000  0.00000000  1.736111e-03
  0.91666667  0.91666667  0.00000000  1.736111e-03
  0.91666667  0.95833333  0.00000000  1.736111e-03
  0.95833333  0.00000000  0.00000000  1.736111e-03
  0.95833333  0.04166667  0.00000000  1.736111e-03
  0.95833333  0.08333333  0.00000000  1.736111e-03
  0.95833333  0.12500000  0.00000000  1.736111e-03
  0.95833333  0.16666667  0.00000000  1.736111e-03
  0.95833333  0.20833333  0.00000000  1.736111e-03
  0.95833333  0.25000000  0.00000000  1.736111e-03
  0.95833333  0.29166667  0.00000000  1.736111e-03
  0.95833333  0.33333333  0.00000000  1.736111e-03
  0.95833333  0.37500000  0.00000000  1.736111e-03
  0.95833333  0.41666667  0.00000000  1.736111e-03
  0.95833333  0.45833333  0.00000000  1.736111e-03
  0.95833333  0.50000000  0.00000000  1.736111e-03
  0.95833333  0.54166667  0.00000000  1.736111e-03
  0.95833333  0.58333333  0.00000000  1.736111e-03
  0.95833333  0.62500000  0.00000000  1.736111e-03
  0.95833333  0.66666667  0.00000000  1.736111e-03